!OPT PBE D3BJ def2-TZVP CPCM(water)

* xyz -1 1
C     -3.563687    0.822179   -0.000011
C     -3.651546   -0.576137   -0.000016
H     -0.216566    1.180052   -0.000051
O     -2.271272    2.787792   -0.000021
C     -2.488953   -1.332381   -0.000032
H     -4.627224   -1.047261   -0.000006
C     -1.253145   -0.702851   -0.000044
Cl    -2.579848   -3.052811   -0.000038
C     -1.193172    0.696937   -0.000041
H     -0.332542   -1.274161   -0.000057
C     -2.338466    1.515969   -0.000024
H     -4.483950    1.405510    0.000002
*
