!OPT PBE D3BJ def2-TZVP CPCM(water)

*xyz -1 1
C     -2.078328   -2.841072    1.558084
C     -2.489481   -2.194607    0.451053
C     -3.742483   -2.564201   -0.182657
C     -4.478397   -3.558210    0.355009
C     -4.031073   -4.253353    1.549833
C     -2.868804   -3.923943    2.153372
O     -2.307418   -4.388732    3.175523
H     -1.140148   -2.565781    2.034259
H     -1.896604   -1.396978    0.021612
H     -4.031550   -2.015689   -1.071057
N     -5.737240   -3.910382   -0.304075
H     -4.640287   -5.049851    1.964043
O     -6.068386   -3.279951   -1.324221
O     -6.419490   -4.824077    0.185210
*
