!OPT PBE D3BJ def2-TZVP CPCM(water)

*xyz -1 1
N -4.977829 -1.457749 -2.584150
C -5.262634 -2.881313 -2.650855
O -4.511634 0.972818 -2.117955
H -4.689049 0.047843 -2.295370
H -3.572722 1.070863 -2.276953
*
