!OPT PBE D3BJ def2-TZVP CPCM(water)

*xyz -1 1
C     -6.315833   -4.191771    0.860061
C     -7.397422   -4.641526    1.486967
H     -6.147333   -4.442538   -0.178270
H     -5.591560   -3.571455    1.375534
O     -7.442128   -4.269594    2.644177
H     -8.129217   -5.273200    0.961864
*
