!OPT PBE D3BJ def2-TZVP CPCM(water)

* xyz -1 1
O     -1.213355    4.368378   -1.357016
C     -1.478346    3.396874   -0.496545
H     -2.307236    2.712836   -0.745997
H     -0.672306    2.673214   -0.287238
H     -1.758880    3.692313    0.528740
*
