!OPT PBE D3BJ def2-TZVP CPCM(water)

*xyz -1 1
C     -4.098943   -1.947129    1.963258
C     -3.777630   -2.414640    0.686440
N     -7.245024   -3.877446    2.680997
C     -5.233243   -2.413637    2.637519
H     -3.464407   -1.209514    2.449151
C     -4.594940   -3.358952    0.071033
H     -2.891793   -2.040856    0.177007
C     -5.730365   -3.833649    0.731973
H     -4.349488   -3.726925   -0.923959
C     -6.050402   -3.358135    2.021571
H     -6.354860   -4.572346    0.230674
O     -5.433959   -1.960733    3.726392
O     -7.909135   -4.716578    2.050893
O     -7.550609   -3.479938    3.809984
*
