!OPT PBE D3BJ def2-TZVP CPCM(water)

*xyz -1 1
O     -2.981122   -4.522828    2.757764
O     -4.188980   -5.210200    2.572832
H     -2.349848   -4.752003    2.055087
*
