!PBE D3BJ def2-TZVP CPCM(water)

*xyz -1 1
N     -4.977829   -1.457749   -2.584150
C     -5.262634   -2.881313   -2.650855
*
