!OPT PBE D3BJ def2-TZVP CPCM(water)

*xyz -1 1
C     -3.388817   -4.189429   -2.962457
C     -4.203620   -2.927800   -2.578216
O     -3.379849   -2.125768   -1.921383
H     -5.096893   -3.298751   -2.050349
H     -4.646623   -2.559942   -3.517560
C     -4.236954   -5.189377   -3.740434
H     -2.521123   -3.918193   -3.580081
H     -3.002226   -4.689051   -2.063311
H     -4.603110   -4.750488   -4.673975
H     -3.643083   -6.073935   -3.991460
H     -5.099490   -5.515780   -3.150608
*
