! OPT PBE D3BJ def2-TZVP CPCM(water)

* xyz -1 1 
H     -3.585041    3.403771   -1.062732
C     -0.281705    3.423775   -0.200991
C     -2.645933    3.035886   -0.665709
H     -1.258905    0.313563    0.807490
H      0.728345    1.778444    0.734638
C     -2.561875    1.756665   -0.122962
C     -1.514606    3.858346   -0.702513
C     -1.345021    1.306157    0.380843
H     -3.435959    1.117090   -0.092862
C     -0.219549    2.135708    0.339614
H     -1.595034    4.854506   -1.129106
N      0.819815    4.194669   -0.224690
H      0.569580    5.090954   -0.655462
*
