!OPT PBE D3BJ def2-TZVP CPCM(water)

*xyz -1 1
N     -8.594345   -3.318033   -1.809938
C     -7.679120   -2.607653   -1.804199
C     -6.655903   -1.813217   -1.797904
H     -5.751163   -2.095725   -1.277063
H     -6.701649   -0.863654   -2.313525
*
