!OPT B3LYP def2-TZVP

%cpcm
  smd true
  SMDsolvent "water"
end
*xyz -1 1
C 0 0 0
N 1 0 0
*
