!PBE D3BJ def2-TZVP CPCM(water)

*xyz -1 1
N     -8.476226   -3.302078   -1.769582
C     -7.608030   -2.537879   -1.811388
N     -6.707974   -1.790520   -1.831248
H     -5.932872   -2.193687   -1.300738
*
