!SP HF def2-SVP CPCM(water)

*xyz -1 1
C           -0.16327289018103       -0.81304944774459        1.58455832159786
C           -0.43253964067672       -0.73637798493681       -1.44190166243915
Cl          -1.75805614439891       -1.30398560575791        1.75269203875664
H            0.59693093349965       -1.56644156098070        1.56493117973891
H            0.05346733235844        0.23243053451801        1.65968947260540
O           -0.76159293852211        0.35830392404427       -1.39552695269200
O           -0.10222365207932       -1.82978485914228       -1.50867039756766
*
