!SP HF def2-SVP CPCM(water)

*xyz -1 1
Cl 0 0 0 
*
