!OPT PBE D3BJ def2-TZVP CPCM(water)

*xyz -1 1
H     -5.141852   -2.527156   -0.913255
C     -4.206434   -2.397747   -2.921383
O     -3.013294   -2.169682   -2.402077
H     -6.768487   -0.749142   -1.182789
C     -5.191129   -1.979283   -1.851632
C     -6.099039   -1.003051   -1.993836
H     -6.152454   -0.434832   -2.914841
H     -4.488895   -1.876740   -3.849828
H     -4.486125   -3.434380   -3.167911
*
