!SP HF def2-SVP CPCM(water)

*xyz -1 1
35 0 0 0
*
