! OPT PBE D3BJ def2-TZVP CPCM(water)

* xyz -1 1
C     -3.147823    2.367648   -0.000010
O     -3.351248    3.610852    0.000002
O     -2.076288    1.705315   -0.000006
H     -4.097286    1.732389   -0.000027
*
